20
80
7
9
84
64
51
7
46
15
0 1
0 2
0 3
0 4
0 6
0 9
0 10
0 11
0 13
0 16
0 17
0 18
1 2
1 3
1 4
1 5
1 7
1 8
1 9
1 13
1 15
2 5
2 6
2 9
2 10
2 11
2 15
2 16
2 19
3 10
3 12
3 13
3 19
4 7
4 9
4 12
4 17
4 18
5 6
5 8
5 11
5 12
5 13
5 14
6 10
6 12
6 14
6 17
6 18
7 9
7 13
7 16
7 19
8 9
8 10
8 12
8 13
8 16
8 18
8 19
9 11
9 13
9 17
9 18
10 11
10 12
11 14
11 17
12 16
12 19
13 14
13 15
13 17
14 17
14 18
14 19
15 16
15 19
16 17
17 19
4 6 15
5 1 3
8 7 13
14 17 11
19 18 9
2 10 12
0 16
